% Generado automaticamente desde C:/Users/andres/Desktop/SEPTIMO SEMESTRE/ADAII/proyecto_final/Proyecto-Optimizacion-ADA2/BateriaPruebas_2025_2_P2-txt/Prueba20.txt

n = 75;
m = 3;
ct = 55.0;
maxMovs = 55.0;
v = [0.381, 0.515, 0.913];
p = [6, 18, 51];
s = [| 3, 1, 2 | 9, 8, 1 | 23, 21, 7 |];
